128 76
33 87 123 5 69 34 2 114 109 37 71 92 84 73 110 105 91 80 32 26 127 86 16 20 44 12 36 85 90 58 11 52 47 22 43 15 111 13 38 24 98 40 8 23 108 6 49 51 39 66 55 4 53 113 83 30 56 74 121 35 117 57 99 59 128 101 126 10 104 93 102 124 118 19 120 64 103 122 70 72 81 60 42 76 61 115 1 21 31 68 63 79 77 17 18 14 9 45 100 62 96 50 41 28 95 67 27 116 48 107 97 112 65 7 78 25 89 3 46 125 54 29 94 119 88 82 106 75 
